# Solution for model Factory Planning I
# Objective value = 9.3715178571428580e+04
Manu[January,Prod1] 500
Manu[January,Prod2] 8.8857142857142867e+02
Manu[January,Prod3] 382.5
Manu[January,Prod4] 300
Manu[January,Prod5] 800
Manu[January,Prod6] 200
Manu[January,Prod7] 0
Manu[February,Prod1] 700
Manu[February,Prod2] 600
Manu[February,Prod3] 117.5
Manu[February,Prod4] 0
Manu[February,Prod5] 500
Manu[February,Prod6] 300
Manu[February,Prod7] 250
Manu[March,Prod1] 0
Manu[March,Prod2] 0
Manu[March,Prod3] 0
Manu[March,Prod4] 0
Manu[March,Prod5] 0
Manu[March,Prod6] 400
Manu[March,Prod7] 0
Manu[April,Prod1] 200
Manu[April,Prod2] 300
Manu[April,Prod3] 400
Manu[April,Prod4] 500
Manu[April,Prod5] 200
Manu[April,Prod6] 0
Manu[April,Prod7] 100
Manu[May,Prod1] 0
Manu[May,Prod2] 100
Manu[May,Prod3] 600
Manu[May,Prod4] 100
Manu[May,Prod5] 1100
Manu[May,Prod6] 300
Manu[May,Prod7] 100
Manu[June,Prod1] 550
Manu[June,Prod2] 550
Manu[June,Prod3] 0
Manu[June,Prod4] 350
Manu[June,Prod5] 0
Manu[June,Prod6] 550
Manu[June,Prod7] 0
Held[January,Prod1] 0
Held[January,Prod2] 0
Held[January,Prod3] 82.5
Held[January,Prod4] 0
Held[January,Prod5] 0
Held[January,Prod6] 0
Held[January,Prod7] 0
Held[February,Prod1] 100
Held[February,Prod2] 100
Held[February,Prod3] 0
Held[February,Prod4] 0
Held[February,Prod5] 100
Held[February,Prod6] 0
Held[February,Prod7] 100
Held[March,Prod1] 0
Held[March,Prod2] 0
Held[March,Prod3] 0
Held[March,Prod4] 0
Held[March,Prod5] 0
Held[March,Prod6] 0
Held[March,Prod7] 0
Held[April,Prod1] 0
Held[April,Prod2] 0
Held[April,Prod3] 0
Held[April,Prod4] 0
Held[April,Prod5] 0
Held[April,Prod6] 0
Held[April,Prod7] 0
Held[May,Prod1] 0
Held[May,Prod2] 0
Held[May,Prod3] 100
Held[May,Prod4] 0
Held[May,Prod5] 100
Held[May,Prod6] 0
Held[May,Prod7] 100
Held[June,Prod1] 50
Held[June,Prod2] 50
Held[June,Prod3] 50
Held[June,Prod4] 50
Held[June,Prod5] 50
Held[June,Prod6] 50
Held[June,Prod7] 50
Sell[January,Prod1] 500
Sell[January,Prod2] 8.8857142857142856e+02
Sell[January,Prod3] 300
Sell[January,Prod4] 300
Sell[January,Prod5] 800
Sell[January,Prod6] 200
Sell[January,Prod7] 0
Sell[February,Prod1] 600
Sell[February,Prod2] 500
Sell[February,Prod3] 200
Sell[February,Prod4] 0
Sell[February,Prod5] 400
Sell[February,Prod6] 300
Sell[February,Prod7] 150
Sell[March,Prod1] 100
Sell[March,Prod2] 100
Sell[March,Prod3] 0
Sell[March,Prod4] 0
Sell[March,Prod5] 100
Sell[March,Prod6] 400
Sell[March,Prod7] 100
Sell[April,Prod1] 200
Sell[April,Prod2] 300
Sell[April,Prod3] 400
Sell[April,Prod4] 500
Sell[April,Prod5] 200
Sell[April,Prod6] 0
Sell[April,Prod7] 100
Sell[May,Prod1] 0
Sell[May,Prod2] 100
Sell[May,Prod3] 500
Sell[May,Prod4] 100
Sell[May,Prod5] 1000
Sell[May,Prod6] 300
Sell[May,Prod7] 0
Sell[June,Prod1] 500
Sell[June,Prod2] 500
Sell[June,Prod3] 50
Sell[June,Prod4] 300
Sell[June,Prod5] 50
Sell[June,Prod6] 500
Sell[June,Prod7] 50
